\ENCODING=ISO-8859-1
\Problem name: ilog.cplex

Minimize
 obj: 67.6643745085619 P216 + 154.78907412435 P217 + 164.503935746909 P218
      + 250.220564655404 P219 + 224.891006721161 P220 + 239.918430312354 P221
      + 237.613790785851 P222 + 252.641214377044 P223 + 250.326070784402 P224
      + 255.246195070363 P225 + 264.990925730451 P226 + 191.09122329309 P227
      + 269.911050016411 P228 + 202.624515642138 P229 + 196.01134757905 P230
      + 206.118646884283 P231 + 211.038771170244 P232 + 151.292466683793 P233
      + 164.015250748483 P234 + 176.823038665692 P235 + 181.743162951652 P236
      + 117.492683255722 P237 + 122.412807541682 P238 + 232.514333137919 P239
      + 237.434457423879 P240 + 154.870324179796 P241 + 166.403616528844 P242
      + 169.897747770989 P243 + 167.593108244486 P244 + 179.126400593534 P245
      + 182.620531835679 P246 + 180.305388243037 P247 + 185.225512528998 P248
      + 194.970243189086 P249 + 121.070540751725 P250 + 199.890367475046 P251
      + 132.603833100773 P252 + 125.990665037685 P253 + 136.097964342918 P254
      + 141.018088628879 P255 + 67.2305737727683 P256 + 263.066480355665 P257
      + 268.353844611808 P258 + 257.105686822808 P259 + 262.393051078951 P260
      + 276.599158246379 P261 + 265.470925016851 P262 + 253.647753886277 P263
      + 256.129518254075 P264 + 188.846809176478 P265 + 260.380525877962 P266
      + 258.93511814242 P267 + 261.416882510218 P268 + 192.900540187358 P269
      + 193.097816800365 P270 + 261.893067520848 P271 + 196.799162844104 P272
      + 194.134173432621 P273 + 193.388870565853 P274 + 193.862082302869 P275
      + 129.516453766507 P276 + 197.151547811245 P277 + 198.187904443501 P278
      + 202.086527100247 P279 + 269.662196144789 P280 + 197.856391768702 P281
      + 133.570184777388 P282 + 134.80381802265 P283 + 202.379487067192 P284
      + 134.058515155882 P285 + 138.857549033531 P286 + 206.433218078072 P287
      + 210.331840734818 P288 + 138.526036358732 P289 + 143.049131657221 P290
      + 147.102862668101 P291 + 151.054705085505 P292 + 163.777489150195 P293
      + 176.585277067404 P294 + 181.505401353364 P295 + 117.254921657434 P296
      + 122.175045943394 P297 + 266.882099449956 P298 + 272.169463706099 P299
      + 280.386035724396 P300 + 280.41477734067 P301 + 263.304241953953 P302
      + 265.191434545483 P303 + 268.591606210096 P304 + 257.343448421096 P305
      + 201.023946420255 P306 + 189.828946888343 P307 + 204.493801834392 P308
      + 269.876242905163 P309 + 269.876242905163 P310 + 270.478798801626 P311
      + 205.708754779936 P312 + 264.196144972253 P313 + 194.175462430888 P314
      + 262.630812677239 P315 + 206.311310676398 P316 + 195.116311144486 P317
      + 206.294879871306 P318 + 206.294879871306 P319 + 276.808178228393 P320
      + 276.836919844667 P321 + 265.708686615139 P322 + 209.202886022081 P323
      + 142.127391746079 P324 + 200.614781938395 P325 + 130.59409939703 P326
      + 209.781166090535 P327 + 208.303981273399 P328 + 197.108981741486 P329
      + 209.210993746209 P330 + 197.67770139716 P331 + 145.621522988224 P332
      + 278.695370819923 P333 + 278.724112436197 P334 + 211.582244127449 P335
      + 211.582244127449 P336 + 211.773836687535 P337 + 267.500371288011 P338
      + 267.500371288011 P339 + 212.705124988354 P340 + 214.556624310969 P341
      + 212.771502476248 P342 + 147.414756002222 P343 + 205.902146194538 P344
      + 135.881463653173 P345 + 203.361624779057 P346 + 201.576502944335 P347
      + 186.346597310998 P348 + 218.026479725106 P349 + 216.241357890384 P350
      + 150.908887244367 P351 + 219.428109140587 P352 + 149.407426599222 P353
      + 207.894816791539 P354 + 137.874134250174 P355 + 190.597604934884 P356
      + 191.633961567141 P357 + 219.798816145746 P358 + 208.265523796698 P359
      + 219.82755776202 P360 + 152.901557841367 P361 + 155.660069636793 P362
      + 214.147459829109 P363 + 144.126777287744 P364 + 223.895630343436 P365
      + 153.874947802071 P366 + 142.341655453023 P367 + 127.016241901027 P368
      + 193.626632164141 P369 + 194.099843901157 P370 + 159.154200878938 P371
      + 157.369079044216 P372 + 264.018021710665 P373 + 264.018021710665 P374
      + 132.30360615717 P375 + 199.879275201712 P376 + 198.09415336699 P377
      + 134.29627675417 P378 + 277.945381191128 P379 + 274.129762096837 P380
      + 212.087228161427 P381 + 200.892228629515 P382 + 197.172117453881 P383
      + 278.94176096481 P384 + 275.126141870519 P385 + 213.08360793511 P386
      + 201.888608403197 P387 + 198.168497227564 P388 + 215.557083575563 P389
      + 216.553463349246 P390 + 268.168968563979 P391 + 269.165348337662 P392
      + 141.657381138202 P393 + 207.862444585276 P394 + 137.841762043911 P395
      + 223.211356028615 P396 + 153.19067348725 P397 + 118.543987771572 P398
      + 142.653760911885 P399 + 208.858824358959 P400 + 138.838141817594 P401
      + 154.187053260933 P402 + 119.540367545255 P403 + 156.684804729396 P404
      + 157.681184503078 P405 + 59.2136323616019 P406 + 60.2100121352845 P407
      + 278.741736394923 P408 + 259.348454203926 P409 + 270.543453735839 P410
      + 255.628343028293 P411 + 220.169057873649 P412 + 216.353438779358 P413
      + 231.702350222698 P414 + 293.769159986116 P415 + 274.013309149975 P416
      + 299.064852454868 P417 + 211.213098325868 P418 + 196.297987618323 P419
      + 235.196481464843 P420 + 137.725309097049 P421 + 162.987803740391 P422
      + 229.192867187465 P423 + 159.1721846461 P424 + 216.621103678268 P425
      + 244.541778630804 P426 + 174.521096089439 P427 + 178.015227331584 P428
      + 80.5440549637906 P429 + 259.849629429708 P430 + 267.129664282851 P431
      + 267.698383938526 P432 + 274.514484375757 P433 + 281.7945192289 P434
      + 221.07538762687 P435
Subject To
 c1: P217 + P220 + P222 + P224 + P225 + P227 + P230 + P239 + P240 + P241 + P244
     + P247 + P248 + P250 + P253 + P259 + P260 + P262 + P298 + P299 + P300
     + P301 + P305 + P307 + P313 + P314 + P315 + P317 + P322 + P325 + P326
     + P329 + P331 + P338 + P339 + P344 + P345 + P346 + P347 + P354 + P355
     + P359 + P363 + P364 + P367 + P379 + P382 + P384 + P387 + P391 + P392
     + P393 + P399 + P408 + P409 + P412 + P417 + P422 + P430 + P431 + P432  = 1
 c1: P218 + P221 + P223 + P226 + P228 + P229 + P231 + P232 + P239 + P240 + P242
     + P243 + P245 + P246 + P249 + P251 + P252 + P254 + P255 + P257 + P258
     + P261 + P298 + P299 + P300 + P301 + P302 + P303 + P304 + P306 + P308
     + P309 + P310 + P311 + P312 + P316 + P318 + P319 + P320 + P321 + P323
     + P324 + P327 + P328 + P330 + P332 + P333 + P334 + P335 + P336 + P337
     + P340 + P341 + P342 + P343 + P349 + P350 + P351 + P352 + P353 + P358
     + P360 + P361 + P362 + P365 + P366 + P371 + P372 + P379 + P380 + P381
     + P384 + P385 + P386 + P389 + P390 + P396 + P397 + P402 + P404 + P405
     + P410 + P414 + P415 + P416 + P417 + P418 + P420 + P425 + P426 + P427
     + P428 + P433 + P434  = 1
 c2: P219 + P220 + P221 + P222 + P223 + P224 + P225 + P226 + P227 + P228 + P229
     + P230 + P231 + P232 + P233 + P234 + P235 + P236 + P237 + P238 + P263
     + P264 + P266 + P267 + P268 + P271 + P272 + P279 + P280 + P288 + P302
     + P304 + P305 + P313 + P315 + P320 + P321 + P322 + P325 + P344 + P348
     + P352 + P354 + P356 + P357 + P363 + P365 + P368 + P369 + P370 + P373
     + P374 + P375 + P376 + P377 + P378 + P394 + P396 + P400 + P423 + P426
     + P430 + P431 + P432 + P433 + P434 + P435  = 1
 c3: P219 + P257 + P258 + P259 + P260 + P261 + P262 + P263 + P264 + P265 + P266
     + P267 + P268 + P269 + P270 + P271 + P272 + P273 + P274 + P275 + P276
     + P277 + P278 + P279 + P280 + P281 + P282 + P283 + P284 + P285 + P286
     + P287 + P288 + P289 + P290 + P291 + P292 + P293 + P294 + P295 + P296
     + P297 + P380 + P383 + P385 + P388 + P391 + P392 + P394 + P395 + P400
     + P401 + P408 + P411 + P413 + P415 + P419 + P423 + P424 + P435  = 1
 c4: P219 + P379 + P380 + P381 + P382 + P383 + P384 + P385 + P386 + P387 + P388
     + P389 + P390 + P391 + P392 + P393 + P394 + P395 + P396 + P397 + P398
     + P399 + P400 + P401 + P402 + P403 + P404 + P405 + P406 + P407 + P408
     + P409 + P410 + P411 + P412 + P413 + P414 + P415 + P416 + P417 + P418
     + P419 + P420 + P421 + P422 + P423 + P424 + P425 + P426 + P427 + P428
     + P429  = 1
 c5: P217 + P257 + P258 + P259 + P260 + P261 + P262 + P263 + P264 + P265 + P266
     + P267 + P268 + P269 + P270 + P271 + P272 + P273 + P276 + P277 + P278
     + P279 + P280 + P282 + P283 + P284 + P286 + P287 + P288 + P290 + P291
     + P298 + P299 + P300 + P301 + P302 + P303 + P304 + P305 + P306 + P307
     + P308 + P309 + P310 + P311 + P312 + P313 + P314 + P315 + P316 + P317
     + P318 + P319 + P320 + P321 + P322 + P323 + P324 + P325 + P326 + P327
     + P332 + P333 + P334 + P335 + P336 + P338 + P339 + P341 + P343 + P344
     + P345 + P346 + P348 + P349 + P351 + P356 + P357 + P358 + P359 + P360
     + P362 + P363 + P364 + P368 + P371 + P373 + P374 + P375 + P376 + P430
     + P433  = 1
 c6: P216 + P220 + P221 + P222 + P223 + P224 + P225 + P226 + P228 + P233 + P234
     + P235 + P236 + P241 + P242 + P243 + P244 + P245 + P246 + P247 + P248
     + P249 + P251 + P256 + P264 + P265 + P266 + P268 + P269 + P270 + P273
     + P274 + P275 + P277 + P278 + P280 + P281 + P284 + P287 + P292 + P293
     + P294 + P295 + P303 + P306 + P307 + P308 + P309 + P310 + P311 + P312
     + P313 + P314 + P316 + P317 + P323 + P327 + P328 + P329 + P330 + P331
     + P333 + P334 + P337 + P338 + P339 + P340 + P341 + P342 + P346 + P347
     + P348 + P349 + P350 + P356 + P357 + P369 + P370 + P373 + P374 + P376
     + P377 + P381 + P382 + P383 + P386 + P387 + P388 + P389 + P390 + P398
     + P403 + P409 + P410 + P411 + P412 + P413 + P414 + P416 + P420 + P421
     + P430 + P431 + P432 + P433 + P434 + P435  = 1
 c7: P218 + P257 + P258 + P259 + P260 + P261 + P262 + P263 + P267 + P271 + P274
     + P275 + P281 + P285 + P289 + P298 + P299 + P300 + P301 + P302 + P303
     + P304 + P305 + P309 + P310 + P311 + P315 + P318 + P319 + P320 + P321
     + P322 + P328 + P329 + P330 + P331 + P333 + P334 + P335 + P336 + P337
     + P338 + P339 + P340 + P342 + P347 + P350 + P352 + P353 + P354 + P355
     + P358 + P359 + P360 + P361 + P365 + P366 + P367 + P369 + P370 + P372
     + P373 + P374 + P377 + P378 + P379 + P380 + P384 + P385 + P391 + P392
     + P408 + P409 + P410 + P411 + P415 + P416 + P417 + P418 + P419 + P425
     + P431 + P432 + P434  = 1
 c8: P216 + P217 + P218 + P219 + P220 + P221 + P222 + P223 + P224 + P225 + P226
     + P227 + P228 + P229 + P230 + P231 + P232 + P233 + P234 + P235 + P236
     + P237 + P238 + P239 + P240 + P241 + P242 + P243 + P244 + P245 + P246
     + P247 + P248 + P249 + P250 + P251 + P252 + P253 + P254 + P255 + P256
     + P257 + P258 + P259 + P260 + P261 + P262 + P263 + P264 + P265 + P266
     + P267 + P268 + P269 + P270 + P271 + P272 + P273 + P274 + P275 + P276
     + P277 + P278 + P279 + P280 + P281 + P282 + P283 + P284 + P285 + P286
     + P287 + P288 + P289 + P290 + P291 + P292 + P293 + P294 + P295 + P296
     + P297 + P298 + P299 + P300 + P301 + P302 + P303 + P304 + P305 + P306
     + P307 + P308 + P309 + P310 + P311 + P312 + P313 + P314 + P315 + P316
     + P317 + P318 + P319 + P320 + P321 + P322 + P323 + P324 + P325 + P326
     + P327 + P328 + P329 + P330 + P331 + P332 + P333 + P334 + P335 + P336
     + P337 + P338 + P339 + P340 + P341 + P342 + P343 + P344 + P345 + P346
     + P347 + P348 + P349 + P350 + P351 + P352 + P353 + P354 + P355 + P356
     + P357 + P358 + P359 + P360 + P361 + P362 + P363 + P364 + P365 + P366
     + P367 + P368 + P369 + P370 + P371 + P372 + P373 + P374 + P375 + P376
     + P377 + P378 + P379 + P380 + P381 + P382 + P383 + P384 + P385 + P386
     + P387 + P388 + P389 + P390 + P391 + P392 + P393 + P394 + P395 + P396
     + P397 + P398 + P399 + P400 + P401 + P402 + P403 + P404 + P405 + P406
     + P407 + P408 + P409 + P410 + P411 + P412 + P413 + P414 + P415 + P416
     + P417 + P418 + P419 + P420 + P421 + P422 + P423 + P424 + P425 + P426
     + P427 + P428 + P429 + P430 + P431 + P432 + P433 + P434 + P435 <= 4
Bounds
 0 <= P216 <= 1
 0 <= P217 <= 1
 0 <= P218 <= 1
 0 <= P219 <= 1
 0 <= P220 <= 1
 0 <= P221 <= 1
 0 <= P222 <= 1
 0 <= P223 <= 1
 0 <= P224 <= 1
 0 <= P225 <= 1
 0 <= P226 <= 1
 0 <= P227 <= 1
 0 <= P228 <= 1
 0 <= P229 <= 1
 0 <= P230 <= 1
 0 <= P231 <= 1
 0 <= P232 <= 1
 0 <= P233 <= 1
 0 <= P234 <= 1
 0 <= P235 <= 1
 0 <= P236 <= 1
 0 <= P237 <= 1
 0 <= P238 <= 1
 0 <= P239 <= 1
 0 <= P240 <= 1
 0 <= P241 <= 1
 0 <= P242 <= 1
 0 <= P243 <= 1
 0 <= P244 <= 1
 0 <= P245 <= 1
 0 <= P246 <= 1
 0 <= P247 <= 1
 0 <= P248 <= 1
 0 <= P249 <= 1
 0 <= P250 <= 1
 0 <= P251 <= 1
 0 <= P252 <= 1
 0 <= P253 <= 1
 0 <= P254 <= 1
 0 <= P255 <= 1
 0 <= P256 <= 1
 0 <= P257 <= 1
 0 <= P258 <= 1
 0 <= P259 <= 1
 0 <= P260 <= 1
 0 <= P261 <= 1
 0 <= P262 <= 1
 0 <= P263 <= 1
 0 <= P264 <= 1
 0 <= P265 <= 1
 0 <= P266 <= 1
 0 <= P267 <= 1
 0 <= P268 <= 1
 0 <= P269 <= 1
 0 <= P270 <= 1
 0 <= P271 <= 1
 0 <= P272 <= 1
 0 <= P273 <= 1
 0 <= P274 <= 1
 0 <= P275 <= 1
 0 <= P276 <= 1
 0 <= P277 <= 1
 0 <= P278 <= 1
 0 <= P279 <= 1
 0 <= P280 <= 1
 0 <= P281 <= 1
 0 <= P282 <= 1
 0 <= P283 <= 1
 0 <= P284 <= 1
 0 <= P285 <= 1
 0 <= P286 <= 1
 0 <= P287 <= 1
 0 <= P288 <= 1
 0 <= P289 <= 1
 0 <= P290 <= 1
 0 <= P291 <= 1
 0 <= P292 <= 1
 0 <= P293 <= 1
 0 <= P294 <= 1
 0 <= P295 <= 1
 0 <= P296 <= 1
 0 <= P297 <= 1
 0 <= P298 <= 1
 0 <= P299 <= 1
 0 <= P300 <= 1
 0 <= P301 <= 1
 0 <= P302 <= 1
 0 <= P303 <= 1
 0 <= P304 <= 1
 0 <= P305 <= 1
 0 <= P306 <= 1
 0 <= P307 <= 1
 0 <= P308 <= 1
 0 <= P309 <= 1
 0 <= P310 <= 1
 0 <= P311 <= 1
 0 <= P312 <= 1
 0 <= P313 <= 1
 0 <= P314 <= 1
 0 <= P315 <= 1
 0 <= P316 <= 1
 0 <= P317 <= 1
 0 <= P318 <= 1
 0 <= P319 <= 1
 0 <= P320 <= 1
 0 <= P321 <= 1
 0 <= P322 <= 1
 0 <= P323 <= 1
 0 <= P324 <= 1
 0 <= P325 <= 1
 0 <= P326 <= 1
 0 <= P327 <= 1
 0 <= P328 <= 1
 0 <= P329 <= 1
 0 <= P330 <= 1
 0 <= P331 <= 1
 0 <= P332 <= 1
 0 <= P333 <= 1
 0 <= P334 <= 1
 0 <= P335 <= 1
 0 <= P336 <= 1
 0 <= P337 <= 1
 0 <= P338 <= 1
 0 <= P339 <= 1
 0 <= P340 <= 1
 0 <= P341 <= 1
 0 <= P342 <= 1
 0 <= P343 <= 1
 0 <= P344 <= 1
 0 <= P345 <= 1
 0 <= P346 <= 1
 0 <= P347 <= 1
 0 <= P348 <= 1
 0 <= P349 <= 1
 0 <= P350 <= 1
 0 <= P351 <= 1
 0 <= P352 <= 1
 0 <= P353 <= 1
 0 <= P354 <= 1
 0 <= P355 <= 1
 0 <= P356 <= 1
 0 <= P357 <= 1
 0 <= P358 <= 1
 0 <= P359 <= 1
 0 <= P360 <= 1
 0 <= P361 <= 1
 0 <= P362 <= 1
 0 <= P363 <= 1
 0 <= P364 <= 1
 0 <= P365 <= 1
 0 <= P366 <= 1
 0 <= P367 <= 1
 0 <= P368 <= 1
 0 <= P369 <= 1
 0 <= P370 <= 1
 0 <= P371 <= 1
 0 <= P372 <= 1
 0 <= P373 <= 1
 0 <= P374 <= 1
 0 <= P375 <= 1
 0 <= P376 <= 1
 0 <= P377 <= 1
 0 <= P378 <= 1
 0 <= P379 <= 1
 0 <= P380 <= 1
 0 <= P381 <= 1
 0 <= P382 <= 1
 0 <= P383 <= 1
 0 <= P384 <= 1
 0 <= P385 <= 1
 0 <= P386 <= 1
 0 <= P387 <= 1
 0 <= P388 <= 1
 0 <= P389 <= 1
 0 <= P390 <= 1
 0 <= P391 <= 1
 0 <= P392 <= 1
 0 <= P393 <= 1
 0 <= P394 <= 1
 0 <= P395 <= 1
 0 <= P396 <= 1
 0 <= P397 <= 1
 0 <= P398 <= 1
 0 <= P399 <= 1
 0 <= P400 <= 1
 0 <= P401 <= 1
 0 <= P402 <= 1
 0 <= P403 <= 1
 0 <= P404 <= 1
 0 <= P405 <= 1
 0 <= P406 <= 1
 0 <= P407 <= 1
 0 <= P408 <= 1
 0 <= P409 <= 1
 0 <= P410 <= 1
 0 <= P411 <= 1
 0 <= P412 <= 1
 0 <= P413 <= 1
 0 <= P414 <= 1
 0 <= P415 <= 1
 0 <= P416 <= 1
 0 <= P417 <= 1
 0 <= P418 <= 1
 0 <= P419 <= 1
 0 <= P420 <= 1
 0 <= P421 <= 1
 0 <= P422 <= 1
 0 <= P423 <= 1
 0 <= P424 <= 1
 0 <= P425 <= 1
 0 <= P426 <= 1
 0 <= P427 <= 1
 0 <= P428 <= 1
 0 <= P429 <= 1
 0 <= P430 <= 1
 0 <= P431 <= 1
 0 <= P432 <= 1
 0 <= P433 <= 1
 0 <= P434 <= 1
 0 <= P435 <= 1
Generals
 P216  P217  P218  P219  P220  P221  P222  P223  P224  P225  P226  P227  P228 
 P229  P230  P231  P232  P233  P234  P235  P236  P237  P238  P239  P240  P241 
 P242  P243  P244  P245  P246  P247  P248  P249  P250  P251  P252  P253  P254 
 P255  P256  P257  P258  P259  P260  P261  P262  P263  P264  P265  P266  P267 
 P268  P269  P270  P271  P272  P273  P274  P275  P276  P277  P278  P279  P280 
 P281  P282  P283  P284  P285  P286  P287  P288  P289  P290  P291  P292  P293 
 P294  P295  P296  P297  P298  P299  P300  P301  P302  P303  P304  P305  P306 
 P307  P308  P309  P310  P311  P312  P313  P314  P315  P316  P317  P318  P319 
 P320  P321  P322  P323  P324  P325  P326  P327  P328  P329  P330  P331  P332 
 P333  P334  P335  P336  P337  P338  P339  P340  P341  P342  P343  P344  P345 
 P346  P347  P348  P349  P350  P351  P352  P353  P354  P355  P356  P357  P358 
 P359  P360  P361  P362  P363  P364  P365  P366  P367  P368  P369  P370  P371 
 P372  P373  P374  P375  P376  P377  P378  P379  P380  P381  P382  P383  P384 
 P385  P386  P387  P388  P389  P390  P391  P392  P393  P394  P395  P396  P397 
 P398  P399  P400  P401  P402  P403  P404  P405  P406  P407  P408  P409  P410 
 P411  P412  P413  P414  P415  P416  P417  P418  P419  P420  P421  P422  P423 
 P424  P425  P426  P427  P428  P429  P430  P431  P432  P433  P434  P435 
End
